Minimize

t


Subject To

a0: which_0_0 + which_1_0 + which_2_0 + which_3_0 = 1
a1: which_0_1 + which_1_1 + which_2_1 + which_3_1 = 1
a2: which_0_2 + which_1_2 + which_2_2 + which_3_2 = 1
a3: which_0_3 + which_1_3 + which_2_3 + which_3_3 = 1
a4: which_0_4 + which_1_4 + which_2_4 + which_3_4 = 1
a5: which_0_5 + which_1_5 + which_2_5 + which_3_5 = 1
b0: 10 which_0_0 + 5 which_0_1 + 12 which_0_2 + 15 which_0_3 + 3 which_0_4 + 1 which_0_5 - t <= 0
b1: 10 which_1_0 + 5 which_1_1 + 12 which_1_2 + 15 which_1_3 + 3 which_1_4 + 1 which_1_5 - t <= 0
b2: 10 which_2_0 + 5 which_2_1 + 12 which_2_2 + 15 which_2_3 + 3 which_2_4 + 1 which_2_5 - t <= 0
b3: 10 which_3_0 + 5 which_3_1 + 12 which_3_2 + 15 which_3_3 + 3 which_3_4 + 1 which_3_5 - t <= 0




Binary

which_0_0 which_0_1 which_0_2 which_0_3 which_0_4 which_0_5 which_1_0 which_1_1 which_1_2 which_1_3 which_1_4 which_1_5 which_2_0 which_2_1 which_2_2 which_2_3 which_2_4 which_2_5 which_3_0 which_3_1 which_3_2 which_3_3 which_3_4 which_3_5


General

 t



End
